0 3618
2401 3550
4802 3506
7203 3438
9604 3407
12005 3368
14406 3327
16807 3314
19208 3299
21609 3290
24010 3277
26411 3269
28812 3252
31213 3243
33614 3232
36015 3214
38416 3212
40817 3205
43218 3203
45619 3196
48020 3188
50421 3180
52822 3177
69629 3173
72030 3167
74431 3154
76832 3145
79233 3142
81634 3138
84035 3137
88837 3133
91238 3127
93639 3126
